c description: Random 3-CNF over 19 variables and 81 clauses
c generator: CNFgen (0.9.2)
c copyright: (C) 2012-2022 Massimo Lauria <massimo.lauria@uniroma1.it>
c url: https://massimolauria.net/cnfgen
c command line: cnfgen --output CNF_4.28/19_bit_81_911.cnf randkcnf 3 19 81
c
p cnf 19 81
-3 7 10 0
-9 -12 -14 0
3 5 18 0
-10 -11 12 0
-11 -13 -16 0
-1 -15 -17 0
-14 -15 17 0
-1 -13 -17 0
5 -13 16 0
-1 -7 9 0
-1 -14 -17 0
-1 3 15 0
11 18 19 0
10 15 16 0
5 6 12 0
2 -3 5 0
10 11 12 0
5 -7 13 0
-11 -12 14 0
-4 15 18 0
-1 -8 -10 0
7 -18 19 0
-8 14 19 0
-5 -11 13 0
6 14 15 0
-7 -14 -15 0
-11 -14 15 0
4 -14 -16 0
9 16 -17 0
-12 15 -17 0
2 -8 9 0
-1 2 18 0
-8 10 17 0
-8 10 13 0
7 15 18 0
-3 -10 -12 0
1 7 -12 0
10 11 -14 0
5 18 19 0
11 16 -17 0
6 12 19 0
9 -10 15 0
-3 4 8 0
-12 -13 16 0
2 6 7 0
-5 8 -17 0
7 -8 16 0
5 -8 14 0
2 5 -12 0
-1 2 12 0
-12 15 18 0
-13 -14 18 0
-7 11 13 0
13 -17 -18 0
-2 -6 -19 0
-6 8 -18 0
-2 -9 11 0
2 -14 -19 0
-11 -18 -19 0
-2 9 14 0
4 -15 -18 0
-4 -15 -17 0
-2 -9 -11 0
8 15 16 0
1 -7 -9 0
7 15 -19 0
2 -9 15 0
9 -11 13 0
-1 -8 -17 0
5 -17 18 0
-1 12 19 0
-14 16 -19 0
9 14 -17 0
3 5 10 0
4 -6 18 0
-3 -9 10 0
7 -11 14 0
-4 -6 -8 0
1 5 -19 0
3 7 -18 0
-3 -13 -16 0
